$molecule
-1 2
 C         0.2893629763    0.0315406487    0.5566337965
 O         0.6541680611   -1.1565349345    0.4174602413
 C        -1.2484564108    0.2451230646    0.4406601187
 O        -1.9097781564   -0.9131982675    0.1604466214
 O        -1.5417753257    1.2702625386   -0.4185445904
 O         0.9759381516    1.0444137214    0.7745928551
 O        -1.7384232270    0.7473130169    1.7662032033
 O        -1.5108119417   -0.1144755690    2.7119986494
 H        -1.2217318192   -1.6053856353    0.1817768981
 H        -2.4856635083    1.2394733162   -0.6302879932
$end

$rem
   BASIS = 6-311++G(3df,2p)
   JOB_TYPE = SP
   METHOD = wB97M-V
   SCF_ALGORITHM = DIIS_GDM
   MAX_SCF_CYCLES = 400
   SCF_CONVERGENCE = 7
   THRESH = 12
   Solvent_method = SMD
$end
