$molecule
-1 2
 O        -0.5898693698    1.4364167686   -0.2011324283
 C        -0.0505459724    0.4558973035    0.6364534286
 O        -0.9992020981   -0.4709441896    1.0550590018
 C         1.1382211719   -0.2198854210   -0.0797845773
 O         2.1150602176    0.5155082449   -0.3422678855
 O         1.0091565412   -1.4439638257   -0.3063138284
 H        -1.2923185257    1.8935755434    0.2782478755
 H        -0.6832252495   -1.3229325128    0.7021992984
 H         0.3900654810    0.9778650496    1.5657085859
 O         1.5169367837    1.7843143470    2.2297602170
 H         2.0821964203    1.6320557921    1.4474164122
$end

$rem
   BASIS = def2-TZVPPD
   JOB_TYPE = SP
   METHOD = wB97M-V
   SCF_ALGORITHM = DIIS_GDM
   MAX_SCF_CYCLES = 400
   SCF_CONVERGENCE = 7
   THRESH = 12
   Solvent_method = SMD
$end
