$molecule
0 2
 C         0.5695364666    0.0119301795    0.6700025330
 O         1.4789047047   -0.2444354264    1.4529369886
 H        -1.5874791836   -0.0042416406   -0.8607253565
 C        -0.5883875990   -0.8391455004    0.5767346309
 O        -0.5918967654   -1.9098741433    1.3586140692
 O        -1.6065446707   -0.7618225066   -0.2626693904
 O         0.6742482200    1.1189624247   -0.0988121464
 H        -0.1018849591    1.3272414999   -0.6326109051
 O        -1.5183944077    0.8592388770    2.0550452789
 O        -2.5615200239    1.1545408207    1.5113733859
 H        -1.4004993818   -2.4225410845    1.2079938120
$end

$rem
   BASIS = def2-TZVPD
   JOB_TYPE = SP
   METHOD = wB97M-V
   SCF_ALGORITHM = DIIS_GDM
   MAX_SCF_CYCLES = 400
   SCF_CONVERGENCE = 7
   THRESH = 12
   Solvent_method = SMD
$end
