$molecule
0 1
 O        -0.6678554955    1.1020238419    0.2612852811
 C        -0.3656352537   -0.2442880346    0.5330946241
 O        -1.0087321239   -1.1308296264   -0.3381898993
 C         1.1413976584   -0.4349469172    0.3500214906
 O         1.8712152688    0.6730078684    0.4158507821
 O         1.6501434675   -1.5191886229    0.2019956850
 H        -1.3958858049    1.3819609322    0.8267715306
 H        -1.8915177107   -1.3065397044    0.0066128236
 H         1.2716528173    1.4364649447    0.4903475041
 H        -0.6024757234   -0.4811881816    1.5723379780
$end

$rem
   BASIS = def2-QZVP
   JOB_TYPE = SP
   METHOD = wB97M-V
   SCF_ALGORITHM = DIIS_GDM
   MAX_SCF_CYCLES = 400
   SCF_CONVERGENCE = 7
   THRESH = 12
   Solvent_method = SMD
$end
