$molecule
-1 1
 C         0.5976906250    0.1829920034    0.0003836046
 O        -0.2116925879    1.0809780819    0.0002834213
 C         2.1394850490    0.4145355110    0.0005056157
 O         2.4827968949    1.6120878250    0.0005925006
 O         2.8556453186   -0.6050976549    0.0004820653
 O         0.2596265223   -1.1065494245    0.0003349708
 H        -0.7087105219   -1.1729699418    0.0002458218
$end

$rem
   BASIS = 6-311++G(3df,2p)
   JOB_TYPE = SP
   METHOD = wB97M-V
   SCF_ALGORITHM = DIIS_GDM
   MAX_SCF_CYCLES = 400
   SCF_CONVERGENCE = 7
   THRESH = 12
   Solvent_method = SMD
$end
