$molecule
-1 2
 C         0.0335825890    0.2156391192    0.2364698461
 O         1.2001413651    0.0826017418    0.8943481755
 H        -1.1277621868    1.3766541534   -0.6298194523
 C        -0.8393693190   -0.8929137460   -0.0274891381
 O        -0.5062190370   -2.0526716429    0.3744233366
 O        -1.9104150558   -0.6008046154   -0.6669935653
 O        -0.2722929998    1.4647120681   -0.1745756269
 H         1.6345905442    0.9437645218    0.9577898244
$end

$rem
   BASIS = 6-311++G(3df,2p)
   JOB_TYPE = SP
   METHOD = wB97M-V
   SCF_ALGORITHM = DIIS_GDM
   MAX_SCF_CYCLES = 400
   SCF_CONVERGENCE = 7
   THRESH = 12
   Solvent_method = SMD
$end
