$molecule
-1 2
 C         0.6332016938    0.2492218888    0.7584201423
 O         1.4025855345   -0.2466265649    1.5928966321
 H        -1.9375709960   -1.0123331655   -0.8866207339
 C        -0.5876356319   -0.6521105713    0.4044916578
 O        -0.8569532521   -1.6133086963    1.1906387653
 O        -1.1874161180   -0.4200235349   -0.6924266891
 O         0.6788790895    1.3139223991    0.1285257991
 O        -1.4798178908    1.1120009332    2.5219901422
 O        -2.4778756125    0.8597842175    1.6870392901
 H        -1.6207131163   -2.1609506057    0.9312915941
$end

$rem
   BASIS = 6-31G(d)
   JOB_TYPE = SP
   METHOD = wB97M-V
   SCF_ALGORITHM = DIIS_GDM
   MAX_SCF_CYCLES = 400
   SCF_CONVERGENCE = 7
   THRESH = 12
   Solvent_method = SMD
$end
