$molecule
-1 2
 C         1.4980164545    0.7660547243   -0.1383624944
 O         1.8026323618    1.4121745551    0.8766832452
 O         1.9798924524    0.8168866210   -1.2928620119
 C         0.3676719600   -0.2762671958    0.0083766160
 O        -0.0592124773   -0.7989272362   -1.1237456197
 O        -0.4187979559   -0.3089060280    1.0215964248
 H         0.0738809553   -1.0384616266    1.7114023966
 O         1.5892850633   -1.6572546214    0.7212176276
 O         1.0518619496   -1.9085083887    1.8610669549
 H         0.5714289363   -0.4987389036   -1.8095437390
$end

$rem
   BASIS = 6-31G(d)
   JOB_TYPE = SP
   METHOD = wB97M-V
   SCF_ALGORITHM = DIIS_GDM
   MAX_SCF_CYCLES = 400
   SCF_CONVERGENCE = 7
   THRESH = 12
   Solvent_method = SMD
$end
