$molecule
0 2
 O        -0.7265937369    0.9841477964    0.4577690803
 C        -0.2402478792   -0.2480819922    0.2787714565
 O        -1.0332743381   -1.2873550349    0.0253175921
 C         1.1606206866   -0.4586142849    0.3412688524
 O         1.9284314593    0.6167230263    0.6653942023
 O         1.7012960441   -1.5446342061    0.1197841305
 H        -1.6551020347    0.9778739983    0.7336224659
 H        -1.9370777822   -1.0038659970   -0.1746886398
 H         1.3743443810    1.3906540943    0.8401361600
$end

$rem
   BASIS = def2-TZVPD
   JOB_TYPE = SP
   METHOD = wB97M-V
   SCF_ALGORITHM = DIIS_GDM
   MAX_SCF_CYCLES = 400
   SCF_CONVERGENCE = 7
   THRESH = 12
   Solvent_method = SMD
$end
