$molecule
-1 1
 O        -0.7700752962    1.0095248173   -0.0901959350
 C        -0.3608196099   -0.2115914739    0.4922317158
 O        -1.0496930004   -1.3042071768   -0.0673185286
 C         1.1546408297   -0.3521732406    0.2396058149
 O         1.8571576590    0.5647537115    0.7328913092
 O         1.5662840877   -1.3426908188   -0.4048193267
 H        -1.6025330528    1.2738191661    0.3164522571
 H        -1.9354580049   -1.3186989432    0.3121775248
 H        -0.5354792121   -0.1788818416    1.5697029686
$end

$rem
   BASIS = def2-QZVP
   JOB_TYPE = SP
   METHOD = wB97M-V
   SCF_ALGORITHM = DIIS_GDM
   MAX_SCF_CYCLES = 400
   SCF_CONVERGENCE = 7
   THRESH = 12
   Solvent_method = SMD
$end
