$molecule
0 2
 C         0.5259361465    0.2043921395    0.4740676009
 O         1.2874533448   -0.5711169147    0.9869908096
 H        -2.5875831013    0.7760436896   -0.2342908893
 C        -0.9933530291   -0.0778802264    0.4538855820
 O        -1.1924198531   -1.3245821325   -0.0584423260
 O        -1.6382660789    0.9534424243   -0.1592693111
 O         0.9252740252    1.3236119123   -0.1025326688
 H         0.1686586019    1.8175050908   -0.4603742573
 O        -1.4339563021   -0.1633635542    1.8680049276
 O        -1.1076507085    0.9154251556    2.5200574009
 H        -2.1404694451   -1.4927940843   -0.1674083686
$end

$rem
   BASIS = def2-TZVP
   JOB_TYPE = SP
   METHOD = wB97M-V
   SCF_ALGORITHM = DIIS_GDM
   MAX_SCF_CYCLES = 400
   SCF_CONVERGENCE = 7
   THRESH = 12
   Solvent_method = SMD
$end
