$molecule
0 2
 C         0.6072589961    0.0995536333    0.2712972596
 O         1.4192510827   -0.7394525853    0.5581470688
 H        -2.1260616732    1.1525978741    0.6669314370
 C        -0.8871968854   -0.2005200305    0.1817492238
 O        -1.1409735157   -1.4918035736    0.0903525274
 O        -1.6789620209    0.6859210684   -0.2986863993
 O         0.9279555595    1.3610302873    0.0358978246
 H         0.1400538454    1.8737465506   -0.2114863691
 O        -1.2145784868    0.1862517434    2.0046042293
 O        -2.1040940641    1.1019168681    1.9304935257
 H        -2.0845900376   -1.6251677360   -0.0954806277
$end

$rem
   BASIS = 6-311++G**
   JOB_TYPE = SP
   METHOD = wB97M-V
   SCF_ALGORITHM = DIIS_GDM
   MAX_SCF_CYCLES = 400
   SCF_CONVERGENCE = 7
   THRESH = 12
   Solvent_method = SMD
$end
