$molecule
0 1
 C         1.8235784383   -0.0637334893    0.0002473030
 O         2.3417852248    1.1510612460    0.0007760691
 O         2.4376891661   -1.0978774708    0.0006843887
 C         0.2881145663   -0.0022133723   -0.0008982110
 O        -0.3258508336    1.0319556106   -0.0015152341
 O        -0.2300177268   -1.2169567043   -0.0008235433
 H         3.3109425424    1.0843720479    0.0015034206
 H        -1.1991530757   -1.1507164572   -0.0014270296
$end

$rem
   BASIS = 6-311++G(3df,2p)
   JOB_TYPE = SP
   METHOD = wB97M-V
   SCF_ALGORITHM = DIIS_GDM
   MAX_SCF_CYCLES = 400
   SCF_CONVERGENCE = 7
   THRESH = 12
   Solvent_method = SMD
$end
